000 000 000 000 000 000 000 000 -99 -99 -99 -99 -99 -99 000 -99 -99 -99 000 000 000 000 000 -99 000 000 -99 -99 -99 -99 000
000 000 000 000 000 000 000 000 -99 -99 -99 -99 -99 000 000 000 -99 -99 -99 000 000 000 000 -99 000 000 000 000 -99 -99 001
-99 000 000 000 000 000 000 -99 -99 -99 -99 -99 -99 -99 000 000 -99 -99 -99 000 000 000 000 -99 000 000 000 000 000 -99 001
-99 -99 000 000 000 000 000 -99 000 000 -99 -99 000 -99 -99 000 000 -99 000 000 000 000 000 000 000 000 000 000 -99 000 001
000 -99 000 000 000 000 000 000 000 000 -99 -99 000 000 -99 -99 000 000 000 -99 000 -99 000 000 000 000 000 000 -99 -99 000
000 000 000 000 000 000 000 000 000 000 -99 -99 000 000 -99 -99 -99 000 -99 -99 000 -99 000 000 000 000 -99 -99 -99 -99 000
000 000 000 000 000 000 000 000 000 000 000 -99 000 000 000 000 000 -99 -99 000 000 -99 000 000 000 000 -99 -99 -99 -99 -99
000 000 000 000 000 -99 000 000 000 000 000 -99 -99 -99 000 000 000 000 -99 -99 000 000 -99 000 000 -99 -99 -99 -99 000 001
-99 -99 000 000 000 -99 -99 000 000 000 000 000 -99 -99 -99 000 000 000 000 000 000 -99 000 000 000 -99 000 000 -99 000 000
-99 000 000 000 000 -99 000 000 000 000 000 000 -99 -99 000 000 000 000 000 000 000 000 -99 -99 000 000 000 000 000 000 000
000 000 000 000 000 -99 000 000 000 000 000 000 000 000 000 000 000 000 000 000 000 000 -99 000 000 000 000 000 000 000 000
000 000 000 000 000 000 -99 000 000 000 000 000 000 000 000 000 000 000 000 000 000 000 -99 000 000 000 000 000 000 000 000
000 000 000 000 000 000 000 000 000 000 000 000 000 000 000 000 000 000 000 000 000 000 -99 000 000 000 000 000 000 000 000
000 000 000 000 000 000 000 000 000 000 000 000 000 000 000 000 000 000 000 000 000 000 001 000 000 000 000 000 000 000 000
000 000 000 000 000 000 000 000 000 000 -99 000 000 000 000 000 000 001 001 001 001 001 001 000 000 000 000 000 000 000 000
000 -99 000 000 000 000 000 000 000 000 -99 -99 000 000 001 000 000 001 001 001 001 001 001 000 000 000 000 000 000 000 000
000 -99 -99 -99 -99 000 000 000 000 -99 -99 -99 000 000 001 001 001 002 001 002 003 004 002 000 000 001 000 000 000 000 000
000 000 000 -99 -99 -99 000 000 000 -99 -99 -99 -99 000 000 001 002 001 001 002 002 005 002 001 002 001 001 -99 000 001 001
000 000 000 -99 -99 -99 -99 000 000 -99 -99 -99 -99 000 000 001 002 001 001 002 002 003 002 001 002 002 001 002 002 002 002
000 000 000 000 -99 -99 -99 000 000 000 000 -99 -99 000 000 001 001 000 001 001 000 000 001 002 003 002 001 002 004 002 002
000 000 000 000 -99 -99 -99 -99 000 000 -99 -99 -99 000 000 000 001 000 002 002 000 000 000 002 002 002 001 002 003 003 -99
000 000 000 000 000 -99 -99 000 000 000 -99 -99 000 000 000 000 000 000 001 001 000 000 000 002 002 002 001 002 003 003 -99
000 000 000 000 000 000 -99 000 000 000 -99 -99 000 000 000 000 000 000 001 001 001 000 000 -99 -99 -99 -99 -99 -99 -99 -99
000 000 000 000 000 000 000 000 000 000 -99 -99 000 000 000 000 000 000 001 001 000 000 000 -99 -99 -99 -99 -99 -99 -99 -99
000 000 000 000 000 000 000 000 000 000 -99 -99 000 000 000 000 000 000 000 000 000 000 000 -99 -99 -99 -99 -99 -99 -99 -99
000 000 000 000 000 000 000 000 000 000 -99 -99 000 000 -99 000 000 000 000 000 000 000 000 -99 -99 -99 -99 -99 -99 -99 000
000 000 000 000 000 000 000 000 000 000 -99 -99 -99 000 000 000 000 000 000 000 000 000 000 -99 -99 -99 -99 -99 -99 -99 000
000 000 000 000 000 -99 000 000 000 000 -99 -99 -99 -99 000 000 000 000 000 000 000 000 000 -99 -99 -99 -99 -99 -99 -99 000
000 000 000 000 000 000 000 000 000 -99 -99 -99 -99 000 000 000 000 000 000 000 000 000 -99 -99 -99 -99 -99 -99 -99 -99 000
000 000 000 000 000 000 000 000 000 -99 -99 -99 -99 -99 000 000 000 000 000 000 000 000 -99 -99 -99 -99 -99 -99 -99 -99 000
000 000 -99 000 000 000 000 000 000 -99 -99 -99 -99 000 000 000 -99 000 000 000 000 000 -99 -99 -99 -99 -99 -99 -99 -99 000
000 000 000 000 000 000 000 000 000 -99 -99 -99 -99 000 -99 -99 000 000 000 -99 -99 -99 -99 000 000 -99 -99 -99 -99 -99 000
000 000 000 000 000 000 000 000 000 000 -99 -99 -99 -99 -99 -99 000 000 000 -99 -99 -99 000 000 000 -99 -99 000 000 000 000
000 000 000 000 000 000 000 000 000 000 -99 -99 -99 000 000 000 000 000 000 -99 -99 000 000 000 000 000 000 000 000 000 000
000 000 000 000 000 000 000 000 000 000 -99 000 000 000 000 000 000 000 -99 -99 000 -99 000 000 000 000 000 000 000 000 000
000 000 000 000 000 000 000 000 000 000 -99 000 000 000 000 000 000 000 -99 000 000 000 000 000 000 000 000 000 000 000 000
000 000 000 000 000 -99 000 000 000 000 -99 -99 000 000 000 000 000 000 -99 000 000 000 000 000 000 000 000 000 000 000 000
000 -99 000 000 000 000 000 000 000 000 -99 -99 000 000 000 000 000 000 000 000 000 000 000 000 000 000 000 000 000 000 000
000 -99 -99 000 000 000 000 000 -99 000 -99 -99 000 000 000 000 000 000 000 000 000 000 000 000 000 000 000 -99 -99 -99 000
000 000 000 000 000 -99 -99 -99 -99 -99 -99 -99 000 000 000 000 000 000 000 000 000 000 000 000 000 000 000 -99 -99 -99 000
000 000 000 000 000 -99 -99 -99 -99 -99 000 000 000 000 000 000 000 000 000 001 001 001 000 000 -99 000 000 -99 -99 -99 000
000 000 000 000 -99 -99 -99 -99 -99 -99 000 000 000 000 000 000 000 000 001 003 001 000 000 000 000 -99 -99 -99 -99 000 000
000 000 -99 -99 -99 -99 -99 -99 -99 000 000 000 001 001 000 000 000 001 002 004 000 000 000 000 000 -99 -99 -99 -99 000 000
000 000 -99 -99 -99 -99 -99 -99 -99 000 000 000 000 001 000 000 001 004 007 000 000 000 000 001 000 -99 -99 -99 -99 000 -99
000 000 -99 -99 -99 -99 -99 -99 -99 000 000 000 000 000 000 003 008 004 007 001 001 001 004 000 000 -99 000 -99 -99 -99 -99
000 -99 -99 -99 -99 -99 -99 -99 -99 -99 -99 000 000 000 006 031 015 004 003 001 004 003 003 000 000 -99 000 -99 -99 -99 -99
000 -99 -99 -99 -99 -99 -99 -99 -99 -99 -99 000 000 000 017 030 020 007 014 003 006 002 001 000 000 -99 000 -99 -99 -99 -99
-99 -99 -99 -99 -99 -99 005 005 001 -99 -99 -99 000 001 006 018 023 017 047 006 002 001 000 000 000 000 -99 -99 -99 -99 000
-99 -99 -99 -99 -99 -99 016 002 -99 -99 -99 -99 000 000 002 008 009 035 033 006 005 002 000 000 000 000 -99 -99 -99 -99 000
-99 -99 -99 -99 -99 010 010 012 -99 000 -99 000 000 000 000 000 004 014 012 012 007 001 000 000 000 -99 -99 -99 -99 000 000
-99 -99 -99 -99 -99 -99 010 -99 000 000 000 -99 000 000 000 000 001 004 003 005 006 001 000 000 000 -99 -99 -99 -99 000 000
-99 -99 -99 -99 -99 -99 -99 -99 000 -99 -99 -99 -99 -99 000 000 000 002 000 007 003 001 002 001 000 -99 -99 -99 -99 -99 -99
-99 -99 -99 -99 -99 -99 -99 -99 -99 -99 -99 -99 -99 -99 000 000 000 000 000 004 000 001 002 000 000 -99 -99 -99 -99 -99 -99
-99 -99 -99 -99 -99 -99 -99 -99 -99 -99 -99 -99 -99 -99 -99 000 000 000 001 001 000 001 001 001 000 -99 -99 -99 -99 -99 -99
-99 -99 -99 -99 -99 -99 -99 -99 -99 -99 -99 -99 -99 -99 -99 000 000 001 003 000 000 001 003 000 -99 -99 -99 -99 -99 -99 -99
